n=20;
demand=2;
horizon=20;
est=[9,4,8,0,16,17,14,1,10,12,2,14,4,2,2,0,9,10,19,9];
processing_time=[8,7,3,20,2,2,1,1,1,8,4,1,15,15,13,5,4,4,1,10];
lct=[18,11,13,20,18,19,19,4,15,20,20,19,19,19,20,16,14,14,20,19];
